100 10
241 415
816 528
698 295
480 263
470 535
615 578
478 224
296 659
648 785
156 433
587 574
410 586
238 497
830 660
376 662
513 157
331 279
526 334
239 274
258 466
517 164
447 243
583 769
796 675
101 603
357 593
829 688
844 353
657 483
281 320
470 809
749 361
481 236
869 733
773 404
260 548
800 525
623 808
479 562
687 518
913 460
410 602
529 627
413 559
737 618
413 696
134 564
403 945
783 629
223 813
684 515
467 696
550 208
190 425
543 410
657 379
378 410
616 545
421 588
411 370
139 801
506 459
515 726
793 682
500 340
934 529
338 509
450 750
674 289
346 397
610 722
806 682
831 139
396 944
268 311
154 772
173 251
537 222
131 404
601 385
318 452
571 579
353 226
403 685
494 203
609 736
598 622
778 323
666 375
564 339
335 477
588 437
343 699
380 583
373 532
723 683
856 427
247 733
698 168
497 724
